p cnf 233 1057
146 216 0
127 132 138 144 0
110 118 171 172 0
115 176 188 0
160 163 164 0
167 170 174 228 0
113 141 149 178 179 230 0
147 152 232 0
105 108 158 161 0
98 101 102 0
89 91 96 124 0
79 84 203 0
76 145 154 186 0
95 99 0
71 75 87 90 0
69 78 139 210 0
128 129 218 0
94 125 220 223 0
173 182 0
116 122 185 0
165 190 0
73 192 194 0
168 196 0
114 175 0
198 201 0
119 183 204 0
77 112 156 187 0
206 207 0
70 208 211 0
214 215 0
106 130 151 217 0
97 199 219 221 0
93 126 135 224 0
82 226 0
184 189 0
83 195 197 209 212 0
123 166 169 227 229 0
121 136 180 231 0
150 162 233 0
66 67 68 157 0
100 104 200 0
63 64 88 0
59 60 61 202 0
57 58 153 155 0
55 56 86 0
-54 -167 0
-54 -179 0
-54 -158 0
-54 -96 0
-52 -54 0
-167 -179 0
-158 -167 0
-96 -167 0
-52 -167 0
-158 -179 0
-96 -179 0
-52 -179 0
-96 -158 0
-52 -158 0
-52 -96 0
-84 -186 0
-51 -84 0
-75 -84 0
-84 -210 0
-49 -84 0
-51 -186 0
-75 -186 0
-186 -210 0
-49 -186 0
-51 -75 0
-51 -210 0
-49 -51 0
-75 -210 0
-49 -75 0
-49 -210 0
-73 -159 0
-159 -196 0
-120 -159 0
-65 -159 0
-159 -198 0
-73 -196 0
-73 -120 0
-65 -73 0
-73 -198 0
-120 -196 0
-65 -196 0
-196 -198 0
-65 -120 0
-120 -198 0
-65 -198 0
-48 -204 0
-48 -112 0
-48 -206 0
-48 -85 0
-48 -208 0
-112 -204 0
-204 -206 0
-85 -204 0
-204 -208 0
-112 -206 0
-85 -112 0
-112 -208 0
-85 -206 0
-206 -208 0
-85 -208 0
-47 -184 0
-45 -184 0
-123 -184 0
-150 -184 0
-68 -184 0
-45 -47 0
-47 -123 0
-47 -150 0
-47 -68 0
-45 -123 0
-45 -150 0
-45 -68 0
-123 -150 0
-68 -123 0
-68 -150 0
-88 -104 0
-61 -104 0
-58 -104 0
-44 -104 0
-56 -104 0
-61 -88 0
-58 -88 0
-44 -88 0
-56 -88 0
-58 -61 0
-44 -61 0
-56 -61 0
-44 -58 0
-56 -58 0
-44 -56 0
-54 -84 0
-54 -159 0
-48 -54 0
-54 -184 0
-54 -104 0
-84 -159 0
-48 -84 0
-84 -184 0
-84 -104 0
-48 -159 0
-159 -184 0
-104 -159 0
-48 -184 0
-48 -104 0
-104 -184 0
-167 -186 0
-73 -167 0
-167 -204 0
-47 -167 0
-88 -167 0
-73 -186 0
-186 -204 0
-47 -186 0
-88 -186 0
-73 -204 0
-47 -73 0
-73 -88 0
-47 -204 0
-88 -204 0
-47 -88 0
-51 -179 0
-179 -196 0
-112 -179 0
-45 -179 0
-61 -179 0
-51 -196 0
-51 -112 0
-45 -51 0
-51 -61 0
-112 -196 0
-45 -196 0
-61 -196 0
-45 -112 0
-61 -112 0
-45 -61 0
-75 -158 0
-120 -158 0
-158 -206 0
-123 -158 0
-58 -158 0
-75 -120 0
-75 -206 0
-75 -123 0
-58 -75 0
-120 -206 0
-120 -123 0
-58 -120 0
-123 -206 0
-58 -206 0
-58 -123 0
-96 -210 0
-65 -96 0
-85 -96 0
-96 -150 0
-44 -96 0
-65 -210 0
-85 -210 0
-150 -210 0
-44 -210 0
-65 -85 0
-65 -150 0
-44 -65 0
-85 -150 0
-44 -85 0
-44 -150 0
-49 -52 0
-52 -198 0
-52 -208 0
-52 -68 0
-52 -56 0
-49 -198 0
-49 -208 0
-49 -68 0
-49 -56 0
-198 -208 0
-68 -198 0
-56 -198 0
-68 -208 0
-56 -208 0
-56 -68 0
-92 -138 0
-81 -92 0
-92 -172 0
-92 -176 0
-42 -92 0
-81 -138 0
-138 -172 0
-138 -176 0
-42 -138 0
-81 -172 0
-81 -176 0
-42 -81 0
-172 -176 0
-42 -172 0
-42 -176 0
-113 -170 0
-170 -232 0
-161 -170 0
-102 -170 0
-40 -170 0
-113 -232 0
-113 -161 0
-102 -113 0
-40 -113 0
-161 -232 0
-102 -232 0
-40 -232 0
-102 -161 0
-40 -161 0
-40 -102 0
-39 -145 0
-99 -145 0
-90 -145 0
-38 -145 0
-145 -213 0
-39 -99 0
-39 -90 0
-38 -39 0
-39 -213 0
-90 -99 0
-38 -99 0
-99 -213 0
-38 -90 0
-90 -213 0
-38 -213 0
-129 -220 0
-129 -134 0
-129 -143 0
-129 -182 0
-129 -190 0
-134 -220 0
-143 -220 0
-182 -220 0
-190 -220 0
-134 -143 0
-134 -182 0
-134 -190 0
-143 -182 0
-143 -190 0
-182 -190 0
-37 -151 0
-37 -199 0
-37 -126 0
-36 -37 0
-35 -37 0
-151 -199 0
-126 -151 0
-36 -151 0
-35 -151 0
-126 -199 0
-36 -199 0
-35 -199 0
-36 -126 0
-35 -126 0
-35 -36 0
-34 -53 0
-34 -209 0
-34 -166 0
-34 -180 0
-34 -157 0
-53 -209 0
-53 -166 0
-53 -180 0
-53 -157 0
-166 -209 0
-180 -209 0
-157 -209 0
-166 -180 0
-157 -166 0
-157 -180 0
-92 -170 0
-92 -145 0
-92 -129 0
-37 -92 0
-34 -92 0
-145 -170 0
-129 -170 0
-37 -170 0
-34 -170 0
-129 -145 0
-37 -145 0
-34 -145 0
-37 -129 0
-34 -129 0
-34 -37 0
-113 -138 0
-39 -138 0
-138 -220 0
-138 -151 0
-53 -138 0
-39 -113 0
-113 -220 0
-113 -151 0
-53 -113 0
-39 -220 0
-39 -151 0
-39 -53 0
-151 -220 0
-53 -220 0
-53 -151 0
-81 -232 0
-81 -99 0
-81 -134 0
-81 -199 0
-81 -209 0
-99 -232 0
-134 -232 0
-199 -232 0
-209 -232 0
-99 -134 0
-99 -199 0
-99 -209 0
-134 -199 0
-134 -209 0
-199 -209 0
-161 -172 0
-90 -172 0
-143 -172 0
-126 -172 0
-166 -172 0
-90 -161 0
-143 -161 0
-126 -161 0
-161 -166 0
-90 -143 0
-90 -126 0
-90 -166 0
-126 -143 0
-143 -166 0
-126 -166 0
-102 -176 0
-38 -176 0
-176 -182 0
-36 -176 0
-176 -180 0
-38 -102 0
-102 -182 0
-36 -102 0
-102 -180 0
-38 -182 0
-36 -38 0
-38 -180 0
-36 -182 0
-180 -182 0
-36 -180 0
-40 -42 0
-42 -213 0
-42 -190 0
-35 -42 0
-42 -157 0
-40 -213 0
-40 -190 0
-35 -40 0
-40 -157 0
-190 -213 0
-35 -213 0
-157 -213 0
-35 -190 0
-157 -190 0
-35 -157 0
-132 -222 0
-33 -222 0
-118 -222 0
-164 -222 0
-33 -132 0
-118 -132 0
-132 -164 0
-33 -118 0
-33 -164 0
-118 -164 0
-168 -192 0
-175 -192 0
-177 -192 0
-107 -192 0
-168 -175 0
-168 -177 0
-107 -168 0
-175 -177 0
-107 -175 0
-107 -177 0
-77 -183 0
-32 -183 0
-183 -207 0
-31 -183 0
-32 -77 0
-77 -207 0
-31 -77 0
-32 -207 0
-31 -32 0
-31 -207 0
-30 -106 0
-30 -219 0
-30 -93 0
-30 -82 0
-106 -219 0
-93 -106 0
-82 -106 0
-93 -219 0
-82 -219 0
-82 -93 0
-28 -41 0
-41 -197 0
-41 -169 0
-41 -233 0
-28 -197 0
-28 -169 0
-28 -233 0
-169 -197 0
-197 -233 0
-169 -233 0
-192 -222 0
-183 -222 0
-30 -222 0
-41 -222 0
-183 -192 0
-30 -192 0
-41 -192 0
-30 -183 0
-41 -183 0
-30 -41 0
-132 -168 0
-77 -132 0
-106 -132 0
-28 -132 0
-77 -168 0
-106 -168 0
-28 -168 0
-77 -106 0
-28 -77 0
-28 -106 0
-33 -175 0
-32 -33 0
-33 -219 0
-33 -197 0
-32 -175 0
-175 -219 0
-175 -197 0
-32 -219 0
-32 -197 0
-197 -219 0
-118 -177 0
-118 -207 0
-93 -118 0
-118 -169 0
-177 -207 0
-93 -177 0
-169 -177 0
-93 -207 0
-169 -207 0
-93 -169 0
-107 -164 0
-31 -164 0
-82 -164 0
-164 -233 0
-31 -107 0
-82 -107 0
-107 -233 0
-31 -82 0
-31 -233 0
-82 -233 0
-114 -140 0
-27 -114 0
-114 -201 0
-27 -140 0
-140 -201 0
-27 -201 0
-97 -224 0
-97 -131 0
-97 -117 0
-131 -224 0
-117 -224 0
-117 -131 0
-83 -227 0
-83 -136 0
-67 -83 0
-136 -227 0
-67 -227 0
-67 -136 0
-26 -155 0
-25 -26 0
-26 -55 0
-25 -155 0
-55 -155 0
-25 -55 0
-97 -114 0
-83 -114 0
-26 -114 0
-83 -97 0
-26 -97 0
-26 -83 0
-140 -224 0
-140 -227 0
-140 -155 0
-224 -227 0
-155 -224 0
-155 -227 0
-27 -131 0
-27 -136 0
-25 -27 0
-131 -136 0
-25 -131 0
-25 -136 0
-117 -201 0
-67 -201 0
-55 -201 0
-67 -117 0
-55 -117 0
-55 -67 0
-24 -146 0
-146 -171 0
-146 -160 0
-24 -171 0
-24 -160 0
-160 -171 0
-76 -203 0
-87 -203 0
-78 -203 0
-76 -87 0
-76 -78 0
-78 -87 0
-23 -128 0
-22 -23 0
-23 -185 0
-22 -128 0
-128 -185 0
-22 -185 0
-46 -194 0
-46 -148 0
-46 -103 0
-148 -194 0
-103 -194 0
-103 -148 0
-146 -203 0
-23 -146 0
-46 -146 0
-23 -203 0
-46 -203 0
-23 -46 0
-24 -76 0
-24 -128 0
-24 -194 0
-76 -128 0
-76 -194 0
-128 -194 0
-87 -171 0
-22 -171 0
-148 -171 0
-22 -87 0
-87 -148 0
-22 -148 0
-78 -160 0
-160 -185 0
-103 -160 0
-78 -185 0
-78 -103 0
-103 -185 0
-133 -144 0
-133 -181 0
-133 -188 0
-133 -163 0
-21 -133 0
-144 -181 0
-144 -188 0
-144 -163 0
-21 -144 0
-181 -188 0
-163 -181 0
-21 -181 0
-163 -188 0
-21 -188 0
-21 -163 0
-228 -230 0
-147 -228 0
-101 -228 0
-91 -228 0
-62 -228 0
-147 -230 0
-101 -230 0
-91 -230 0
-62 -230 0
-101 -147 0
-91 -147 0
-62 -147 0
-91 -101 0
-62 -101 0
-62 -91 0
-19 -154 0
-95 -154 0
-17 -154 0
-69 -154 0
-16 -154 0
-19 -95 0
-17 -19 0
-19 -69 0
-16 -19 0
-17 -95 0
-69 -95 0
-16 -95 0
-17 -69 0
-16 -17 0
-16 -69 0
-119 -187 0
-50 -119 0
-74 -119 0
-15 -119 0
-119 -211 0
-50 -187 0
-74 -187 0
-15 -187 0
-187 -211 0
-50 -74 0
-15 -50 0
-50 -211 0
-15 -74 0
-74 -211 0
-15 -211 0
-14 -72 0
-14 -195 0
-14 -121 0
-14 -162 0
-14 -66 0
-72 -195 0
-72 -121 0
-72 -162 0
-66 -72 0
-121 -195 0
-162 -195 0
-66 -195 0
-121 -162 0
-66 -121 0
-66 -162 0
-64 -202 0
-64 -111 0
-64 -205 0
-13 -64 0
-64 -86 0
-111 -202 0
-202 -205 0
-13 -202 0
-86 -202 0
-111 -205 0
-13 -111 0
-86 -111 0
-13 -205 0
-86 -205 0
-13 -86 0
-133 -228 0
-133 -154 0
-119 -133 0
-14 -133 0
-64 -133 0
-154 -228 0
-119 -228 0
-14 -228 0
-64 -228 0
-119 -154 0
-14 -154 0
-64 -154 0
-14 -119 0
-64 -119 0
-14 -64 0
-144 -230 0
-19 -144 0
-144 -187 0
-72 -144 0
-144 -202 0
-19 -230 0
-187 -230 0
-72 -230 0
-202 -230 0
-19 -187 0
-19 -72 0
-19 -202 0
-72 -187 0
-187 -202 0
-72 -202 0
-147 -181 0
-95 -181 0
-50 -181 0
-181 -195 0
-111 -181 0
-95 -147 0
-50 -147 0
-147 -195 0
-111 -147 0
-50 -95 0
-95 -195 0
-95 -111 0
-50 -195 0
-50 -111 0
-111 -195 0
-101 -188 0
-17 -188 0
-74 -188 0
-121 -188 0
-188 -205 0
-17 -101 0
-74 -101 0
-101 -121 0
-101 -205 0
-17 -74 0
-17 -121 0
-17 -205 0
-74 -121 0
-74 -205 0
-121 -205 0
-91 -163 0
-69 -163 0
-15 -163 0
-162 -163 0
-13 -163 0
-69 -91 0
-15 -91 0
-91 -162 0
-13 -91 0
-15 -69 0
-69 -162 0
-13 -69 0
-15 -162 0
-13 -15 0
-13 -162 0
-21 -62 0
-16 -21 0
-21 -211 0
-21 -66 0
-21 -86 0
-16 -62 0
-62 -211 0
-62 -66 0
-62 -86 0
-16 -211 0
-16 -66 0
-16 -86 0
-66 -211 0
-86 -211 0
-66 -86 0
-12 -216 0
-127 -216 0
-216 -225 0
-110 -216 0
-115 -216 0
-12 -127 0
-12 -225 0
-12 -110 0
-12 -115 0
-127 -225 0
-110 -127 0
-115 -127 0
-110 -225 0
-115 -225 0
-110 -115 0
-174 -191 0
-178 -191 0
-152 -191 0
-108 -191 0
-98 -191 0
-174 -178 0
-152 -174 0
-108 -174 0
-98 -174 0
-152 -178 0
-108 -178 0
-98 -178 0
-108 -152 0
-98 -152 0
-98 -108 0
-29 -218 0
-29 -94 0
-29 -137 0
-29 -80 0
-29 -173 0
-94 -218 0
-137 -218 0
-80 -218 0
-173 -218 0
-94 -137 0
-80 -94 0
-94 -173 0
-80 -137 0
-137 -173 0
-80 -173 0
-11 -214 0
-130 -214 0
-214 -221 0
-135 -214 0
-142 -214 0
-11 -130 0
-11 -221 0
-11 -135 0
-11 -142 0
-130 -221 0
-130 -135 0
-130 -142 0
-135 -221 0
-142 -221 0
-135 -142 0
-20 -189 0
-10 -189 0
-189 -212 0
-189 -229 0
-189 -231 0
-10 -20 0
-20 -212 0
-20 -229 0
-20 -231 0
-10 -212 0
-10 -229 0
-10 -231 0
-212 -229 0
-212 -231 0
-229 -231 0
-63 -100 0
-60 -100 0
-9 -100 0
-100 -153 0
-18 -100 0
-60 -63 0
-9 -63 0
-63 -153 0
-18 -63 0
-9 -60 0
-60 -153 0
-18 -60 0
-9 -153 0
-9 -18 0
-18 -153 0
-191 -216 0
-29 -216 0
-214 -216 0
-189 -216 0
-100 -216 0
-29 -191 0
-191 -214 0
-189 -191 0
-100 -191 0
-29 -214 0
-29 -189 0
-29 -100 0
-189 -214 0
-100 -214 0
-100 -189 0
-12 -174 0
-12 -218 0
-11 -12 0
-12 -20 0
-12 -63 0
-174 -218 0
-11 -174 0
-20 -174 0
-63 -174 0
-11 -218 0
-20 -218 0
-63 -218 0
-11 -20 0
-11 -63 0
-20 -63 0
-127 -178 0
-94 -127 0
-127 -130 0
-10 -127 0
-60 -127 0
-94 -178 0
-130 -178 0
-10 -178 0
-60 -178 0
-94 -130 0
-10 -94 0
-60 -94 0
-10 -130 0
-60 -130 0
-10 -60 0
-152 -225 0
-137 -225 0
-221 -225 0
-212 -225 0
-9 -225 0
-137 -152 0
-152 -221 0
-152 -212 0
-9 -152 0
-137 -221 0
-137 -212 0
-9 -137 0
-212 -221 0
-9 -221 0
-9 -212 0
-108 -110 0
-80 -110 0
-110 -135 0
-110 -229 0
-110 -153 0
-80 -108 0
-108 -135 0
-108 -229 0
-108 -153 0
-80 -135 0
-80 -229 0
-80 -153 0
-135 -229 0
-135 -153 0
-153 -229 0
-98 -115 0
-115 -173 0
-115 -142 0
-115 -231 0
-18 -115 0
-98 -173 0
-98 -142 0
-98 -231 0
-18 -98 0
-142 -173 0
-173 -231 0
-18 -173 0
-142 -231 0
-18 -142 0
-18 -231 0
-8 -141 0
-8 -124 0
-7 -8 0
-124 -141 0
-7 -141 0
-7 -124 0
-6 -223 0
-6 -122 0
-6 -165 0
-122 -223 0
-165 -223 0
-122 -165 0
-5 -156 0
-4 -5 0
-5 -70 0
-4 -156 0
-70 -156 0
-4 -70 0
-215 -217 0
-215 -226 0
-109 -215 0
-217 -226 0
-109 -217 0
-109 -226 0
-6 -8 0
-5 -8 0
-8 -215 0
-5 -6 0
-6 -215 0
-5 -215 0
-141 -223 0
-141 -156 0
-141 -217 0
-156 -223 0
-217 -223 0
-156 -217 0
-122 -124 0
-4 -124 0
-124 -226 0
-4 -122 0
-122 -226 0
-4 -226 0
-7 -165 0
-7 -70 0
-7 -109 0
-70 -165 0
-109 -165 0
-70 -109 0
-149 -193 0
-105 -193 0
-89 -193 0
-105 -149 0
-89 -149 0
-89 -105 0
-43 -79 0
-71 -79 0
-79 -139 0
-43 -71 0
-43 -139 0
-71 -139 0
-3 -125 0
-2 -3 0
-3 -116 0
-2 -125 0
-116 -125 0
-2 -116 0
-59 -200 0
-57 -200 0
-1 -200 0
-57 -59 0
-1 -59 0
-1 -57 0
-79 -193 0
-3 -193 0
-193 -200 0
-3 -79 0
-79 -200 0
-3 -200 0
-43 -149 0
-125 -149 0
-59 -149 0
-43 -125 0
-43 -59 0
-59 -125 0
-71 -105 0
-2 -105 0
-57 -105 0
-2 -71 0
-57 -71 0
-2 -57 0
-89 -139 0
-89 -116 0
-1 -89 0
-116 -139 0
-1 -139 0
-1 -116 0
